# Solution for model probrema
# Objective value = 2.2561917757861919e+05
supply_0_port_15 128
supply_1_port_21 453
supply_2_port_15 594
supply_4_port_15 555
supply_8_port_15 706
supply_9_port_15 669
supply_1_tranship_13 282
supply_2_tranship_14 229
supply_3_tranship_13 277
supply_5_tranship_13 356
supply_6_tranship_13 117
supply_7_tranship_13 981
tranship_13_port_21 2013
tranship_14_port_21 229
X_15_22 420
X_15_25 764
X_15_32 739
X_15_36 729
X_21_29 511
X_21_38 1715
X_21_39 469
